NAME : bch2762
COMMENT : Bonn VLSI data set with 2762 points
COMMENT : Uni Bonn, Research Institute for Discrete Math
COMMENT : Contributed by Andre Rohe
TYPE : TSP
DIMENSION : 2762
EDGE_WEIGHT_TYPE : EUC_2D
NODE_COORD_SECTION
1 0 101
2 0 105
3 0 106
4 0 109
5 0 112
6 0 113
7 0 117
8 0 118
9 0 121
10 0 125
11 0 129
12 0 13
13 0 131
14 0 133
15 0 137
16 0 141
17 0 144
18 0 145
19 0 149
20 0 153
21 0 157
22 0 161
23 0 165
24 0 169
25 0 17
26 0 173
27 0 177
28 0 181
29 0 185
30 0 189
31 0 193
32 0 197
33 0 201
34 0 205
35 0 209
36 0 21
37 0 213
38 0 214
39 0 217
40 0 218
41 0 221
42 0 222
43 0 226
44 0 230
45 0 234
46 0 25
47 0 29
48 0 33
49 0 37
50 0 41
51 0 45
52 0 49
53 0 5
54 0 53
55 0 57
56 0 61
57 0 65
58 0 69
59 0 73
60 0 77
61 0 81
62 0 85
63 0 89
64 0 9
65 0 92
66 0 93
67 0 97
68 2 10
69 2 106
70 2 108
71 2 110
72 2 112
73 2 114
74 2 116
75 2 118
76 2 121
77 2 123
78 2 128
79 2 13
80 2 130
81 2 136
82 2 138
83 2 141
84 2 142
85 2 144
86 2 145
87 2 147
88 2 148
89 2 15
90 2 151
91 2 152
92 2 156
93 2 157
94 2 160
95 2 161
96 2 162
97 2 167
98 2 169
99 2 17
100 2 172
101 2 174
102 2 183
103 2 185
104 2 187
105 2 189
106 2 19
107 2 191
108 2 194
109 2 196
110 2 202
111 2 204
112 2 206
113 2 208
114 2 21
115 2 215
116 2 217
117 2 23
118 2 230
119 2 232
120 2 26
121 2 28
122 2 41
123 2 44
124 2 46
125 2 48
126 2 50
127 2 52
128 2 54
129 2 56
130 2 58
131 2 60
132 2 62
133 2 65
134 2 67
135 2 69
136 2 71
137 2 73
138 2 75
139 2 77
140 2 78
141 2 79
142 2 81
143 2 83
144 2 87
145 2 89
146 2 94
147 2 96
148 3 154
149 5 100
150 5 104
151 5 106
152 5 108
153 5 11
154 5 110
155 5 112
156 5 114
157 5 116
158 5 118
159 5 121
160 5 123
161 5 128
162 5 130
163 5 14
164 5 179
165 5 18
166 5 183
167 5 185
168 5 187
169 5 189
170 5 191
171 5 194
172 5 196
173 5 200
174 5 202
175 5 204
176 5 206
177 5 208
178 5 210
179 5 212
180 5 218
181 5 22
182 5 221
183 5 225
184 5 26
185 5 32
186 5 35
187 5 39
188 5 42
189 5 45
190 5 49
191 5 53
192 5 57
193 5 61
194 5 65
195 5 69
196 5 71
197 5 73
198 5 77
199 5 8
200 5 87
201 5 89
202 5 91
203 5 94
204 5 96
205 9 12
206 9 43
207 9 67
208 9 75
209 10 10
210 10 105
211 10 12
212 10 120
213 10 127
214 10 182
215 10 193
216 10 201
217 10 217
218 10 41
219 10 43
220 10 64
221 10 67
222 10 70
223 10 75
224 10 86
225 10 93
226 11 10
227 11 105
228 11 12
229 11 120
230 11 127
231 11 132
232 11 182
233 11 193
234 11 198
235 11 201
236 11 211
237 11 217
238 11 219
239 11 226
240 11 30
241 11 33
242 11 41
243 11 43
244 11 64
245 11 67
246 11 70
247 11 75
248 11 83
249 11 86
250 11 93
251 11 98
252 12 101
253 12 176
254 12 222
255 12 5
256 15 104
257 15 106
258 15 108
259 15 11
260 15 110
261 15 112
262 15 114
263 15 116
264 15 118
265 15 121
266 15 123
267 15 128
268 15 130
269 15 179
270 15 183
271 15 185
272 15 187
273 15 189
274 15 191
275 15 194
276 15 196
277 15 202
278 15 204
279 15 206
280 15 208
281 15 210
282 15 212
283 15 218
284 15 225
285 15 42
286 15 65
287 15 71
288 15 73
289 15 8
290 15 87
291 15 89
292 15 91
293 15 94
294 15 96
295 16 239
296 17 142
297 17 145
298 17 148
299 17 151
300 17 157
301 17 160
302 17 167
303 17 169
304 17 172
305 17 174
306 17 215
307 17 239
308 17 28
309 17 79
310 17 80
311 17 81
312 18 155
313 18 161
314 18 83
315 25 11
316 25 120
317 25 122
318 25 124
319 25 126
320 25 128
321 25 129
322 25 13
323 25 133
324 25 134
325 25 137
326 25 138
327 25 139
328 25 144
329 25 146
330 25 149
331 25 15
332 25 150
333 25 154
334 25 155
335 25 158
336 25 159
337 25 160
338 25 165
339 25 167
340 25 17
341 25 170
342 25 173
343 25 175
344 25 178
345 25 180
346 25 181
347 25 184
348 25 185
349 25 187
350 25 188
351 25 19
352 25 190
353 25 191
354 25 193
355 25 195
356 25 197
357 25 198
358 25 199
359 25 201
360 25 202
361 25 203
362 25 204
363 25 206
364 25 207
365 25 208
366 25 209
367 25 21
368 25 212
369 25 214
370 25 23
371 25 230
372 25 25
373 25 27
374 25 29
375 25 31
376 25 33
377 25 36
378 25 37
379 25 39
380 25 42
381 25 44
382 25 46
383 25 48
384 25 50
385 25 52
386 25 55
387 25 6
388 25 61
389 25 63
390 25 66
391 25 68
392 25 70
393 25 72
394 25 74
395 25 77
396 25 79
397 25 81
398 25 83
399 25 87
400 26 131
401 26 152
402 28 106
403 28 110
404 28 114
405 28 12
406 28 16
407 28 20
408 28 212
409 28 214
410 28 24
411 28 28
412 28 32
413 28 36
414 28 38
415 28 40
416 28 43
417 28 47
418 28 51
419 28 55
420 28 57
421 28 62
422 28 66
423 28 69
424 28 73
425 28 77
426 28 79
427 28 81
428 28 83
429 31 124
430 32 10
431 32 107
432 32 110
433 32 114
434 32 124
435 32 169
436 32 41
437 32 60
438 32 67
439 33 10
440 33 108
441 33 112
442 33 125
443 33 211
444 33 37
445 33 39
446 33 41
447 33 60
448 33 67
449 33 76
450 33 85
451 34 10
452 34 104
453 34 116
454 34 124
455 34 211
456 34 220
457 34 37
458 34 39
459 34 41
460 34 56
461 34 60
462 34 67
463 34 76
464 34 85
465 38 109
466 38 113
467 38 126
468 38 174
469 38 180
470 38 189
471 38 199
472 38 212
473 38 214
474 38 38
475 38 40
476 38 57
477 38 77
478 38 79
479 38 81
480 38 83
481 40 128
482 40 134
483 40 137
484 40 144
485 40 146
486 40 149
487 40 155
488 40 158
489 40 165
490 40 167
491 40 170
492 40 176
493 40 199
494 40 202
495 40 203
496 40 205
497 40 206
498 40 207
499 40 6
500 41 132
501 41 138
502 41 153
503 41 159
504 41 175
505 41 177
506 41 178
507 41 181
508 41 187
509 41 188
510 41 200
511 41 201
512 41 208
513 41 230
514 48 102
515 48 106
516 48 108
517 48 110
518 48 112
519 48 114
520 48 120
521 48 122
522 48 125
523 48 127
524 48 129
525 48 13
526 48 131
527 48 134
528 48 135
529 48 136
530 48 139
531 48 141
532 48 142
533 48 143
534 48 146
535 48 147
536 48 148
537 48 149
538 48 15
539 48 152
540 48 153
541 48 157
542 48 158
543 48 161
544 48 162
545 48 163
546 48 168
547 48 176
548 48 178
549 48 179
550 48 180
551 48 181
552 48 183
553 48 184
554 48 185
555 48 188
556 48 192
557 48 194
558 48 195
559 48 196
560 48 26
561 48 28
562 48 30
563 48 32
564 48 38
565 48 40
566 48 42
567 48 44
568 48 46
569 48 48
570 48 50
571 48 52
572 48 54
573 48 56
574 48 59
575 48 61
576 48 63
577 48 65
578 48 67
579 48 69
580 48 71
581 48 73
582 48 75
583 48 77
584 48 79
585 48 86
586 48 91
587 48 93
588 48 95
589 49 155
590 51 106
591 51 108
592 51 110
593 51 112
594 51 115
595 51 125
596 51 129
597 51 131
598 51 133
599 51 139
600 51 18
601 51 191
602 51 193
603 51 200
604 51 204
605 51 208
606 51 21
607 51 214
608 51 218
609 51 223
610 51 229
611 51 23
612 51 233
613 51 29
614 51 32
615 51 35
616 51 39
617 51 43
618 51 47
619 51 51
620 51 55
621 51 59
622 51 62
623 51 66
624 51 70
625 51 74
626 51 78
627 51 8
628 51 91
629 51 93
630 51 95
631 51 97
632 51 99
633 54 176
634 54 187
635 54 215
636 55 127
637 55 176
638 55 187
639 55 226
640 55 229
641 55 233
642 55 30
643 55 37
644 55 60
645 56 105
646 56 114
647 56 124
648 56 127
649 56 130
650 56 138
651 56 170
652 56 177
653 56 187
654 56 192
655 56 227
656 56 231
657 56 28
658 56 30
659 56 37
660 56 60
661 56 90
662 57 105
663 57 114
664 57 116
665 57 124
666 57 127
667 57 130
668 57 138
669 57 17
670 57 176
671 57 187
672 57 192
673 57 198
674 57 20
675 57 28
676 57 30
677 57 33
678 57 37
679 57 60
680 57 9
681 57 90
682 57 98
683 58 187
684 58 201
685 58 205
686 58 5
687 61 106
688 61 108
689 61 110
690 61 112
691 61 115
692 61 125
693 61 131
694 61 133
695 61 139
696 61 178
697 61 18
698 61 193
699 61 204
700 61 208
701 61 21
702 61 214
703 61 218
704 61 223
705 61 228
706 61 23
707 61 232
708 61 29
709 61 8
710 61 91
711 61 93
712 61 95
713 61 97
714 61 99
715 63 102
716 63 135
717 63 136
718 63 142
719 63 143
720 63 146
721 63 147
722 63 148
723 63 149
724 63 152
725 63 158
726 63 161
727 63 168
728 63 180
729 63 181
730 63 184
731 63 185
732 63 195
733 63 196
734 63 26
735 64 156
736 64 162
737 64 189
738 64 190
739 64 86
740 71 100
741 71 107
742 71 11
743 71 111
744 71 113
745 71 115
746 71 132
747 71 134
748 71 138
749 71 139
750 71 141
751 71 142
752 71 143
753 71 149
754 71 15
755 71 150
756 71 154
757 71 155
758 71 158
759 71 159
760 71 160
761 71 165
762 71 183
763 71 184
764 71 186
765 71 187
766 71 188
767 71 190
768 71 192
769 71 193
770 71 194
771 71 196
772 71 199
773 71 201
774 71 203
775 71 205
776 71 209
777 71 218
778 71 220
779 71 222
780 71 224
781 71 23
782 71 239
783 71 25
784 71 39
785 71 41
786 71 44
787 71 48
788 71 50
789 71 52
790 71 54
791 71 56
792 71 58
793 71 6
794 71 61
795 71 62
796 71 64
797 71 73
798 72 152
799 74 11
800 74 111
801 74 113
802 74 116
803 74 118
804 74 123
805 74 127
806 74 132
807 74 134
808 74 147
809 74 16
810 74 172
811 74 177
812 74 181
813 74 191
814 74 197
815 74 20
816 74 200
817 74 205
818 74 212
819 74 216
820 74 219
821 74 224
822 74 227
823 74 23
824 74 230
825 74 234
826 74 25
827 74 29
828 74 32
829 74 36
830 74 40
831 74 44
832 74 46
833 74 49
834 74 53
835 74 57
836 74 61
837 74 64
838 74 68
839 74 73
840 74 75
841 74 79
842 74 86
843 74 92
844 74 94
845 74 97
846 77 208
847 78 120
848 78 123
849 78 127
850 78 174
851 78 177
852 78 181
853 78 198
854 78 203
855 78 208
856 78 217
857 78 222
858 78 38
859 78 47
860 78 62
861 78 65
862 78 76
863 79 10
864 79 110
865 79 115
866 79 121
867 79 125
868 79 131
869 79 15
870 79 167
871 79 175
872 79 179
873 79 190
874 79 196
875 79 198
876 79 203
877 79 208
878 79 217
879 79 22
880 79 222
881 79 38
882 79 47
883 79 62
884 79 65
885 79 72
886 79 76
887 80 10
888 80 110
889 80 115
890 80 117
891 80 131
892 80 145
893 80 15
894 80 171
895 80 190
896 80 196
897 80 198
898 80 203
899 80 208
900 80 217
901 80 22
902 80 222
903 80 225
904 80 228
905 80 27
906 80 30
907 80 38
908 80 45
909 80 47
910 80 62
911 80 65
912 80 72
913 80 76
914 80 93
915 80 96
916 81 17
917 81 208
918 81 213
919 81 65
920 81 76
921 81 83
922 84 11
923 84 111
924 84 113
925 84 116
926 84 118
927 84 122
928 84 126
929 84 132
930 84 134
931 84 16
932 84 172
933 84 176
934 84 180
935 84 191
936 84 197
937 84 20
938 84 216
939 84 23
940 84 25
941 84 46
942 84 68
943 84 73
944 84 75
945 84 79
946 84 86
947 84 92
948 84 94
949 84 97
950 86 100
951 86 138
952 86 139
953 86 142
954 86 143
955 86 149
956 86 155
957 86 158
958 86 165
959 86 184
960 86 187
961 86 188
962 86 193
963 86 194
964 86 6
965 87 107
966 87 153
967 87 159
968 87 210
969 87 211
970 87 66
971 87 67
972 87 69
973 87 70
974 87 77
975 87 78
976 87 80
977 87 81
978 94 10
979 94 114
980 94 115
981 94 119
982 94 12
983 94 120
984 94 123
985 94 124
986 94 125
987 94 13
988 94 130
989 94 139
990 94 140
991 94 144
992 94 145
993 94 148
994 94 149
995 94 150
996 94 155
997 94 157
998 94 16
999 94 160
1000 94 161
1001 94 165
1002 94 166
1003 94 169
1004 94 17
1005 94 170
1006 94 171
1007 94 176
1008 94 178
1009 94 181
1010 94 182
1011 94 186
1012 94 187
1013 94 190
1014 94 191
1015 94 192
1016 94 197
1017 94 199
1018 94 20
1019 94 202
1020 94 203
1021 94 207
1022 94 208
1023 94 21
1024 94 211
1025 94 212
1026 94 213
1027 94 218
1028 94 31
1029 94 6
1030 94 63
1031 94 64
1032 94 65
1033 94 72
1034 94 73
1035 94 74
1036 95 117
1037 95 142
1038 95 163
1039 95 184
1040 95 205
1041 97 100
1042 97 108
1043 97 13
1044 97 17
1045 97 21
1046 97 226
1047 97 229
1048 97 233
1049 97 24
1050 97 26
1051 97 40
1052 97 42
1053 97 48
1054 97 56
1055 97 59
1056 97 84
1057 97 92
1058 100 10
1059 100 102
1060 100 110
1061 100 80
1062 100 86
1063 100 94
1064 101 10
1065 101 102
1066 101 110
1067 101 13
1068 101 17
1069 101 21
1070 101 62
1071 101 71
1072 101 80
1073 101 86
1074 101 94
1075 102 102
1076 102 11
1077 102 110
1078 102 132
1079 102 15
1080 102 19
1081 102 30
1082 102 80
1083 102 86
1084 102 94
1085 103 10
1086 103 103
1087 103 111
1088 103 220
1089 103 224
1090 103 227
1091 103 23
1092 103 30
1093 103 41
1094 103 57
1095 103 66
1096 103 75
1097 103 80
1098 103 87
1099 103 95
1100 104 37
1101 104 44
1102 104 80
1103 107 12
1104 107 16
1105 107 20
1106 107 24
1107 107 26
1108 107 40
1109 107 42
1110 108 31
1111 109 114
1112 109 120
1113 109 123
1114 109 130
1115 109 139
1116 109 145
1117 109 148
1118 109 155
1119 109 157
1120 109 160
1121 109 166
1122 109 169
1123 109 176
1124 109 178
1125 109 181
1126 109 187
1127 109 190
1128 109 197
1129 109 199
1130 109 202
1131 109 208
1132 109 211
1133 109 218
1134 109 6
1135 110 100
1136 110 102
1137 110 106
1138 110 108
1139 110 110
1140 110 118
1141 110 124
1142 110 143
1143 110 149
1144 110 164
1145 110 170
1146 110 185
1147 110 191
1148 110 206
1149 110 212
1150 110 81
1151 110 82
1152 110 84
1153 110 86
1154 110 89
1155 110 90
1156 110 92
1157 110 94
1158 110 97
1159 110 98
1160 117 10
1161 117 104
1162 117 117
1163 117 118
1164 117 12
1165 117 121
1166 117 123
1167 117 14
1168 117 146
1169 117 147
1170 117 15
1171 117 157
1172 117 158
1173 117 160
1174 117 17
1175 117 172
1176 117 173
1177 117 174
1178 117 175
1179 117 18
1180 117 199
1181 117 20
1182 117 200
1183 117 204
1184 117 205
1185 117 208
1186 117 209
1187 117 210
1188 117 215
1189 117 217
1190 117 219
1191 117 22
1192 117 220
1193 117 221
1194 117 231
1195 117 233
1196 117 24
1197 117 26
1198 117 28
1199 117 31
1200 117 38
1201 117 39
1202 117 46
1203 117 52
1204 117 53
1205 117 6
1206 117 61
1207 117 67
1208 117 69
1209 117 72
1210 117 74
1211 117 76
1212 117 77
1213 117 79
1214 117 82
1215 117 85
1216 117 86
1217 117 87
1218 117 97
1219 118 161
1220 118 202
1221 120 109
1222 120 11
1223 120 112
1224 120 116
1225 120 121
1226 120 123
1227 120 17
1228 120 20
1229 120 226
1230 120 23
1231 120 27
1232 120 31
1233 120 33
1234 120 35
1235 120 42
1236 120 58
1237 120 62
1238 120 64
1239 120 66
1240 120 69
1241 120 71
1242 120 73
1243 120 75
1244 120 80
1245 120 82
1246 120 94
1247 123 12
1248 124 12
1249 124 15
1250 124 18
1251 124 191
1252 124 21
1253 124 67
1254 124 84
1255 125 10
1256 125 120
1257 125 13
1258 125 15
1259 125 18
1260 125 21
1261 125 45
1262 125 61
1263 125 67
1264 125 72
1265 125 74
1266 125 79
1267 125 81
1268 126 0
1269 126 10
1270 126 107
1271 126 110
1272 126 12
1273 126 120
1274 126 125
1275 126 15
1276 126 18
1277 126 191
1278 126 21
1279 126 227
1280 126 32
1281 126 41
1282 126 45
1283 126 61
1284 126 63
1285 126 65
1286 126 67
1287 126 70
1288 126 72
1289 126 74
1290 126 79
1291 126 81
1292 126 88
1293 126 93
1294 127 0
1295 127 223
1296 127 55
1297 128 0
1298 129 0
1299 130 0
1300 130 11
1301 130 121
1302 130 123
1303 130 14
1304 130 226
1305 130 33
1306 130 35
1307 130 42
1308 130 58
1309 130 62
1310 130 64
1311 130 66
1312 130 71
1313 130 73
1314 130 75
1315 130 80
1316 130 82
1317 130 94
1318 131 0
1319 131 46
1320 132 0
1321 132 118
1322 132 146
1323 132 172
1324 132 174
1325 132 199
1326 132 205
1327 132 208
1328 132 215
1329 132 217
1330 132 220
1331 132 221
1332 132 38
1333 132 39
1334 132 53
1335 132 6
1336 132 77
1337 132 97
1338 133 0
1339 133 104
1340 133 145
1341 133 156
1342 133 162
1343 133 175
1344 133 203
1345 133 209
1346 134 0
1347 135 0
1348 136 0
1349 137 0
1350 138 0
1351 139 0
1352 140 0
1353 140 10
1354 140 107
1355 140 108
1356 140 109
1357 140 112
1358 140 113
1359 140 117
1360 140 118
1361 140 12
1362 140 121
1363 140 122
1364 140 123
1365 140 128
1366 140 13
1367 140 137
1368 140 138
1369 140 142
1370 140 143
1371 140 146
1372 140 147
1373 140 148
1374 140 153
1375 140 155
1376 140 16
1377 140 160
1378 140 161
1379 140 165
1380 140 166
1381 140 169
1382 140 17
1383 140 170
1384 140 171
1385 140 176
1386 140 178
1387 140 181
1388 140 182
1389 140 186
1390 140 187
1391 140 19
1392 140 190
1393 140 191
1394 140 192
1395 140 197
1396 140 199
1397 140 202
1398 140 203
1399 140 207
1400 140 208
1401 140 21
1402 140 211
1403 140 212
1404 140 213
1405 140 218
1406 140 22
1407 140 220
1408 140 223
1409 140 239
1410 140 25
1411 140 26
1412 140 29
1413 140 30
1414 140 36
1415 140 39
1416 140 40
1417 140 46
1418 140 48
1419 140 50
1420 140 52
1421 140 54
1422 140 57
1423 140 73
1424 140 78
1425 140 80
1426 140 81
1427 140 83
1428 140 85
1429 140 87
1430 140 89
1431 140 91
1432 140 93
1433 141 0
1434 141 115
1435 141 140
1436 141 163
1437 141 184
1438 141 205
1439 141 239
1440 142 0
1441 142 239
1442 143 0
1443 143 100
1444 143 103
1445 143 105
1446 143 13
1447 143 158
1448 143 17
1449 143 22
1450 143 227
1451 143 230
1452 143 234
1453 143 239
1454 143 26
1455 143 31
1456 143 33
1457 143 44
1458 143 46
1459 143 48
1460 143 50
1461 143 52
1462 143 54
1463 143 7
1464 143 80
1465 143 83
1466 143 85
1467 143 87
1468 143 89
1469 143 91
1470 143 93
1471 143 98
1472 144 0
1473 144 239
1474 145 0
1475 145 239
1476 146 0
1477 146 10
1478 146 19
1479 146 239
1480 147 0
1481 147 10
1482 147 13
1483 147 17
1484 147 19
1485 147 22
1486 147 26
1487 147 78
1488 147 81
1489 148 0
1490 148 11
1491 148 130
1492 148 15
1493 148 20
1494 148 24
1495 148 28
1496 148 30
1497 148 45
1498 148 78
1499 148 81
1500 148 84
1501 149 0
1502 149 10
1503 149 102
1504 149 157
1505 149 19
1506 149 225
1507 149 228
1508 149 30
1509 149 32
1510 149 42
1511 149 45
1512 149 5
1513 149 63
1514 149 78
1515 149 81
1516 149 84
1517 149 99
1518 150 0
1519 150 95
1520 151 0
1521 152 0
1522 153 0
1523 153 100
1524 153 103
1525 153 105
1526 153 12
1527 153 158
1528 153 16
1529 153 21
1530 153 25
1531 153 29
1532 153 31
1533 153 33
1534 153 46
1535 153 48
1536 153 50
1537 153 52
1538 153 54
1539 153 85
1540 153 87
1541 153 89
1542 153 91
1543 153 93
1544 153 98
1545 154 0
1546 155 0
1547 155 108
1548 155 109
1549 155 112
1550 155 118
1551 155 121
1552 155 128
1553 155 137
1554 155 143
1555 155 146
1556 155 153
1557 155 155
1558 155 160
1559 155 166
1560 155 169
1561 155 176
1562 155 178
1563 155 181
1564 155 187
1565 155 190
1566 155 197
1567 155 199
1568 155 202
1569 155 208
1570 155 211
1571 155 218
1572 155 220
1573 155 223
1574 155 36
1575 155 39
1576 155 57
1577 156 0
1578 156 116
1579 156 122
1580 156 141
1581 156 147
1582 156 164
1583 156 170
1584 156 185
1585 156 191
1586 156 206
1587 156 212
1588 156 73
1589 163 106
1590 163 11
1591 163 115
1592 163 116
1593 163 118
1594 163 133
1595 163 135
1596 163 138
1597 163 140
1598 163 142
1599 163 143
1600 163 145
1601 163 147
1602 163 152
1603 163 153
1604 163 157
1605 163 158
1606 163 161
1607 163 162
1608 163 163
1609 163 168
1610 163 170
1611 163 172
1612 163 173
1613 163 174
1614 163 176
1615 163 177
1616 163 178
1617 163 181
1618 163 204
1619 163 206
1620 163 210
1621 163 212
1622 163 213
1623 163 215
1624 163 217
1625 163 218
1626 163 220
1627 163 223
1628 163 25
1629 163 28
1630 163 34
1631 163 35
1632 163 36
1633 163 38
1634 163 39
1635 163 40
1636 163 42
1637 163 44
1638 163 45
1639 163 47
1640 163 48
1641 163 49
1642 163 51
1643 163 53
1644 163 54
1645 163 56
1646 163 58
1647 163 70
1648 163 72
1649 163 75
1650 163 77
1651 163 78
1652 163 80
1653 163 82
1654 163 84
1655 163 87
1656 163 89
1657 163 91
1658 163 93
1659 163 95
1660 164 155
1661 166 107
1662 166 110
1663 166 114
1664 166 130
1665 166 136
1666 166 148
1667 166 182
1668 166 187
1669 166 195
1670 166 199
1671 166 212
1672 166 214
1673 166 216
1674 166 22
1675 166 227
1676 166 230
1677 166 234
1678 166 26
1679 166 29
1680 166 33
1681 166 41
1682 166 44
1683 166 46
1684 166 50
1685 166 53
1686 166 55
1687 166 58
1688 166 6
1689 166 61
1690 166 65
1691 166 69
1692 166 72
1693 166 8
1694 166 82
1695 166 84
1696 166 87
1697 166 89
1698 166 91
1699 166 93
1700 166 95
1701 169 138
1702 169 38
1703 169 47
1704 169 75
1705 169 78
1706 170 138
1707 170 210
1708 170 38
1709 170 42
1710 170 47
1711 170 51
1712 170 56
1713 170 70
1714 170 75
1715 170 78
1716 171 0
1717 171 10
1718 171 106
1719 171 135
1720 171 139
1721 171 147
1722 171 181
1723 171 210
1724 171 213
1725 171 215
1726 171 239
1727 171 25
1728 171 28
1729 171 38
1730 171 42
1731 171 45
1732 171 47
1733 171 51
1734 171 54
1735 171 56
1736 171 70
1737 171 76
1738 171 79
1739 171 81
1740 171 86
1741 172 10
1742 172 106
1743 172 108
1744 172 120
1745 172 129
1746 172 135
1747 172 138
1748 172 147
1749 172 181
1750 172 200
1751 172 21
1752 172 210
1753 172 213
1754 172 215
1755 172 225
1756 172 228
1757 172 25
1758 172 28
1759 172 38
1760 172 42
1761 172 45
1762 172 47
1763 172 5
1764 172 51
1765 172 54
1766 172 56
1767 172 59
1768 172 68
1769 172 70
1770 172 75
1771 172 78
1772 172 81
1773 172 86
1774 172 97
1775 173 111
1776 173 183
1777 173 196
1778 173 30
1779 176 107
1780 176 114
1781 176 130
1782 176 136
1783 176 140
1784 176 148
1785 176 182
1786 176 199
1787 176 214
1788 176 216
1789 176 22
1790 176 26
1791 176 29
1792 176 33
1793 176 41
1794 176 46
1795 176 50
1796 176 55
1797 176 6
1798 176 69
1799 176 77
1800 176 8
1801 176 80
1802 176 82
1803 176 84
1804 176 87
1805 176 89
1806 176 91
1807 176 93
1808 176 95
1809 178 116
1810 178 118
1811 178 133
1812 178 143
1813 178 145
1814 178 152
1815 178 158
1816 178 161
1817 178 168
1818 178 170
1819 178 173
1820 178 174
1821 178 177
1822 178 178
1823 178 218
1824 178 220
1825 178 223
1826 178 35
1827 178 36
1828 179 156
1829 179 162
1830 186 10
1831 186 105
1832 186 107
1833 186 109
1834 186 111
1835 186 112
1836 186 114
1837 186 116
1838 186 124
1839 186 131
1840 186 133
1841 186 138
1842 186 140
1843 186 142
1844 186 144
1845 186 146
1846 186 147
1847 186 148
1848 186 149
1849 186 156
1850 186 158
1851 186 16
1852 186 160
1853 186 162
1854 186 164
1855 186 166
1856 186 168
1857 186 169
1858 186 171
1859 186 172
1860 186 173
1861 186 175
1862 186 176
1863 186 178
1864 186 187
1865 186 189
1866 186 191
1867 186 195
1868 186 199
1869 186 206
1870 186 207
1871 186 210
1872 186 211
1873 186 212
1874 186 218
1875 186 220
1876 186 223
1877 186 225
1878 186 226
1879 186 228
1880 186 33
1881 186 35
1882 186 37
1883 186 39
1884 186 40
1885 186 41
1886 186 43
1887 186 46
1888 186 54
1889 186 60
1890 186 64
1891 186 66
1892 186 68
1893 186 75
1894 186 78
1895 186 80
1896 186 82
1897 186 84
1898 186 89
1899 186 91
1900 186 96
1901 189 106
1902 189 11
1903 189 110
1904 189 117
1905 189 121
1906 189 13
1907 189 133
1908 189 143
1909 189 146
1910 189 154
1911 189 158
1912 189 161
1913 189 165
1914 189 168
1915 189 170
1916 189 182
1917 189 186
1918 189 196
1919 189 202
1920 189 205
1921 189 224
1922 189 233
1923 189 28
1924 189 38
1925 189 42
1926 189 44
1927 189 49
1928 189 54
1929 189 6
1930 189 66
1931 189 76
1932 189 79
1933 189 8
1934 189 84
1935 192 187
1936 192 39
1937 192 45
1938 192 50
1939 192 56
1940 193 104
1941 193 131
1942 193 144
1943 193 156
1944 193 159
1945 193 166
1946 193 187
1947 193 199
1948 193 39
1949 193 45
1950 193 50
1951 193 56
1952 193 64
1953 193 77
1954 193 82
1955 194 10
1956 194 104
1957 194 109
1958 194 116
1959 194 123
1960 194 131
1961 194 142
1962 194 144
1963 194 15
1964 194 156
1965 194 159
1966 194 164
1967 194 166
1968 194 169
1969 194 188
1970 194 195
1971 194 199
1972 194 223
1973 194 37
1974 194 39
1975 194 43
1976 194 45
1977 194 50
1978 194 56
1979 194 64
1980 194 67
1981 194 75
1982 194 77
1983 194 82
1984 194 95
1985 195 10
1986 195 104
1987 195 109
1988 195 116
1989 195 12
1990 195 123
1991 195 131
1992 195 134
1993 195 142
1994 195 144
1995 195 15
1996 195 156
1997 195 159
1998 195 164
1999 195 166
2000 195 169
2001 195 181
2002 195 184
2003 195 187
2004 195 195
2005 195 199
2006 195 203
2007 195 214
2008 195 223
2009 195 26
2010 195 29
2011 195 37
2012 195 39
2013 195 43
2014 195 45
2015 195 5
2016 195 50
2017 195 57
2018 195 64
2019 195 67
2020 195 75
2021 195 77
2022 195 82
2023 195 85
2024 195 95
2025 196 118
2026 196 151
2027 196 199
2028 196 230
2029 196 45
2030 196 50
2031 197 0
2032 197 239
2033 199 11
2034 199 110
2035 199 117
2036 199 121
2037 199 13
2038 199 143
2039 199 154
2040 199 165
2041 199 170
2042 199 182
2043 199 189
2044 199 196
2045 199 202
2046 199 224
2047 199 233
2048 199 38
2049 199 42
2050 199 44
2051 199 6
2052 199 76
2053 199 8
2054 200 124
2055 200 68
2056 200 96
2057 201 112
2058 201 114
2059 201 148
2060 201 149
2061 201 172
2062 201 173
2063 201 176
2064 201 178
2065 201 191
2066 201 207
2067 201 211
2068 201 226
2069 201 228
2070 201 60
2071 202 200
2072 202 201
2073 202 212
2074 202 47
2075 202 48
2076 202 51
2077 202 52
2078 202 54
2079 202 56
2080 209 101
2081 209 105
2082 209 107
2083 209 111
2084 209 112
2085 209 114
2086 209 118
2087 209 125
2088 209 127
2089 209 128
2090 209 130
2091 209 135
2092 209 136
2093 209 137
2094 209 139
2095 209 144
2096 209 146
2097 209 148
2098 209 150
2099 209 152
2100 209 153
2101 209 157
2102 209 158
2103 209 161
2104 209 162
2105 209 163
2106 209 168
2107 209 170
2108 209 172
2109 209 174
2110 209 175
2111 209 177
2112 209 178
2113 209 179
2114 209 181
2115 209 183
2116 209 185
2117 209 186
2118 209 187
2119 209 190
2120 209 194
2121 209 196
2122 209 197
2123 209 199
2124 209 200
2125 209 201
2126 209 202
2127 209 203
2128 209 205
2129 209 207
2130 209 208
2131 209 210
2132 209 212
2133 209 213
2134 209 216
2135 209 22
2136 209 222
2137 209 223
2138 209 224
2139 209 226
2140 209 228
2141 209 231
2142 209 37
2143 209 38
2144 209 39
2145 209 40
2146 209 41
2147 209 43
2148 209 45
2149 209 47
2150 209 49
2151 209 51
2152 209 55
2153 209 56
2154 209 57
2155 209 58
2156 209 59
2157 209 6
2158 209 61
2159 209 65
2160 209 67
2161 209 69
2162 209 73
2163 209 75
2164 209 76
2165 209 77
2166 209 78
2167 209 79
2168 209 81
2169 209 83
2170 209 84
2171 209 86
2172 209 90
2173 209 91
2174 209 92
2175 209 93
2176 209 94
2177 209 96
2178 210 155
2179 212 104
2180 212 107
2181 212 110
2182 212 115
2183 212 119
2184 212 123
2185 212 127
2186 212 129
2187 212 131
2188 212 134
2189 212 142
2190 212 144
2191 212 146
2192 212 150
2193 212 173
2194 212 182
2195 212 185
2196 212 193
2197 212 195
2198 212 209
2199 212 212
2200 212 214
2201 212 227
2202 212 229
2203 212 27
2204 212 30
2205 212 34
2206 212 45
2207 212 48
2208 212 54
2209 212 64
2210 212 67
2211 212 72
2212 212 74
2213 212 85
2214 212 87
2215 212 99
2216 215 100
2217 215 189
2218 215 205
2219 215 68
2220 215 81
2221 216 100
2222 216 105
2223 216 125
2224 216 139
2225 216 148
2226 216 183
2227 216 189
2228 216 205
2229 216 210
2230 216 43
2231 216 46
2232 216 51
2233 216 61
2234 216 65
2235 216 68
2236 216 81
2237 216 96
2238 217 100
2239 217 105
2240 217 114
2241 217 118
2242 217 125
2243 217 128
2244 217 130
2245 217 139
2246 217 143
2247 217 148
2248 217 172
2249 217 181
2250 217 183
2251 217 189
2252 217 194
2253 217 206
2254 217 208
2255 217 210
2256 217 213
2257 217 215
2258 217 226
2259 217 228
2260 217 43
2261 217 46
2262 217 51
2263 217 61
2264 217 65
2265 217 68
2266 217 73
2267 217 82
2268 217 84
2269 217 86
2270 217 96
2271 218 100
2272 218 105
2273 218 108
2274 218 114
2275 218 118
2276 218 12
2277 218 125
2278 218 128
2279 218 130
2280 218 132
2281 218 139
2282 218 143
2283 218 148
2284 218 172
2285 218 181
2286 218 183
2287 218 189
2288 218 194
2289 218 205
2290 218 208
2291 218 210
2292 218 213
2293 218 215
2294 218 226
2295 218 228
2296 218 25
2297 218 28
2298 218 43
2299 218 46
2300 218 51
2301 218 61
2302 218 65
2303 218 68
2304 218 73
2305 218 81
2306 218 84
2307 218 86
2308 218 96
2309 219 100
2310 219 120
2311 219 139
2312 219 189
2313 219 51
2314 219 61
2315 219 68
2316 219 96
2317 222 115
2318 222 119
2319 222 123
2320 222 129
2321 222 131
2322 222 142
2323 222 144
2324 222 146
2325 222 173
2326 222 182
2327 222 195
2328 222 207
2329 222 209
2330 222 214
2331 222 227
2332 222 229
2333 222 54
2334 222 64
2335 222 74
2336 222 83
2337 222 85
2338 222 87
2339 222 99
2340 223 216
2341 224 112
2342 224 136
2343 224 137
2344 224 152
2345 224 158
2346 224 161
2347 224 168
2348 224 170
2349 224 175
2350 224 178
2351 224 179
2352 224 187
2353 224 197
2354 224 200
2355 224 201
2356 224 202
2357 224 203
2358 224 223
2359 224 224
2360 224 231
2361 224 38
2362 224 39
2363 224 40
2364 224 41
2365 224 56
2366 224 57
2367 224 58
2368 224 59
2369 224 6
2370 224 76
2371 224 77
2372 224 78
2373 224 79
2374 224 91
2375 224 92
2376 224 93
2377 224 94
2378 225 102
2379 225 103
2380 225 140
2381 225 141
2382 225 156
2383 225 162
2384 225 191
2385 225 192
2386 225 22
2387 225 52
2388 225 53
2389 225 62
2390 225 63
2391 225 70
2392 225 71
2393 225 97
2394 225 98
2395 232 100
2396 232 101
2397 232 106
2398 232 113
2399 232 114
2400 232 118
2401 232 119
2402 232 122
2403 232 123
2404 232 124
2405 232 129
2406 232 13
2407 232 131
2408 232 134
2409 232 135
2410 232 139
2411 232 140
2412 232 143
2413 232 144
2414 232 145
2415 232 15
2416 232 150
2417 232 152
2418 232 155
2419 232 156
2420 232 160
2421 232 161
2422 232 164
2423 232 165
2424 232 166
2425 232 171
2426 232 173
2427 232 175
2428 232 176
2429 232 177
2430 232 178
2431 232 180
2432 232 182
2433 232 183
2434 232 188
2435 232 190
2436 232 195
2437 232 199
2438 232 209
2439 232 213
2440 232 26
2441 232 28
2442 232 31
2443 232 32
2444 232 36
2445 232 37
2446 232 40
2447 232 41
2448 232 42
2449 232 47
2450 232 49
2451 232 51
2452 232 55
2453 232 57
2454 232 58
2455 232 62
2456 232 64
2457 232 66
2458 232 68
2459 232 70
2460 232 77
2461 232 90
2462 232 91
2463 232 95
2464 232 96
2465 232 99
2466 233 116
2467 233 137
2468 233 158
2469 233 34
2470 233 93
2471 235 18
2472 235 182
2473 235 184
2474 235 194
2475 235 196
2476 235 21
2477 235 210
2478 235 23
2479 235 233
2480 235 27
2481 235 54
2482 235 57
2483 235 61
2484 235 63
2485 235 65
2486 235 68
2487 235 73
2488 235 8
2489 238 69
2490 239 180
2491 239 25
2492 239 51
2493 239 55
2494 239 58
2495 239 66
2496 239 69
2497 240 180
2498 240 183
2499 240 195
2500 240 198
2501 240 209
2502 240 211
2503 240 25
2504 240 51
2505 240 55
2506 240 58
2507 240 62
2508 240 64
2509 240 66
2510 240 69
2511 240 74
2512 241 108
2513 241 17
2514 241 180
2515 241 183
2516 241 192
2517 241 195
2518 241 198
2519 241 20
2520 241 209
2521 241 211
2522 241 25
2523 241 51
2524 241 55
2525 241 58
2526 241 62
2527 241 64
2528 241 66
2529 241 69
2530 241 74
2531 241 9
2532 242 230
2533 242 5
2534 242 51
2535 242 58
2536 242 69
2537 245 18
2538 245 184
2539 245 196
2540 245 21
2541 245 210
2542 245 23
2543 245 233
2544 245 54
2545 245 61
2546 245 63
2547 245 65
2548 245 8
2549 247 106
2550 247 113
2551 247 119
2552 247 122
2553 247 129
2554 247 131
2555 247 134
2556 247 140
2557 247 143
2558 247 150
2559 247 152
2560 247 155
2561 247 161
2562 247 164
2563 247 171
2564 247 173
2565 247 176
2566 247 177
2567 247 178
2568 247 188
2569 247 190
2570 247 31
2571 247 37
2572 247 40
2573 247 47
2574 247 49
2575 247 90
2576 247 96
2577 247 99
2578 248 100
2579 248 117
2580 248 123
2581 248 138
2582 248 144
2583 248 159
2584 248 165
2585 248 35
2586 248 41
2587 248 52
2588 248 53
2589 248 59
2590 248 60
2591 248 71
2592 248 72
2593 248 94
2594 255 114
2595 255 115
2596 255 125
2597 255 126
2598 255 128
2599 255 140
2600 255 141
2601 255 142
2602 255 143
2603 255 167
2604 255 168
2605 255 172
2606 255 173
2607 255 176
2608 255 177
2609 255 178
2610 255 183
2611 255 185
2612 255 188
2613 255 189
2614 255 193
2615 255 194
2616 255 197
2617 255 198
2618 255 199
2619 255 204
2620 255 218
2621 255 231
2622 255 25
2623 255 38
2624 255 40
2625 255 45
2626 255 47
2627 255 51
2628 255 52
2629 255 53
2630 255 54
2631 255 55
2632 255 57
2633 255 61
2634 255 63
2635 255 64
2636 255 66
2637 255 68
2638 255 70
2639 255 71
2640 255 75
2641 255 76
2642 255 79
2643 255 80
2644 255 81
2645 255 86
2646 255 88
2647 255 9
2648 255 90
2649 255 92
2650 256 129
2651 256 170
2652 256 191
2653 256 73
2654 258 212
2655 258 216
2656 258 30
2657 258 33
2658 258 37
2659 258 40
2660 258 6
2661 258 60
2662 258 63
2663 258 65
2664 261 66
2665 261 90
2666 262 159
2667 262 38
2668 262 57
2669 262 61
2670 262 66
2671 262 90
2672 263 217
2673 263 38
2674 263 57
2675 263 61
2676 263 64
2677 263 67
2678 263 91
2679 264 15
2680 264 159
2681 264 206
2682 264 210
2683 264 217
2684 264 28
2685 264 31
2686 264 38
2687 264 41
2688 264 5
2689 264 57
2690 264 61
2691 264 64
2692 264 66
2693 264 90
2694 264 93
2695 265 213
2696 265 57
2697 268 216
2698 268 6
2699 268 60
2700 268 65
2701 268 68
2702 268 92
2703 270 114
2704 270 140
2705 270 142
2706 270 167
2707 270 173
2708 270 176
2709 270 183
2710 270 185
2711 270 188
2712 270 194
2713 270 197
2714 270 204
2715 270 52
2716 270 53
2717 270 54
2718 270 55
2719 270 70
2720 270 76
2721 270 79
2722 270 86
2723 270 88
2724 270 9
2725 271 113
2726 271 124
2727 271 130
2728 271 143
2729 271 171
2730 271 177
2731 271 192
2732 271 198
2733 271 231
2734 271 25
2735 271 58
2736 271 59
2737 271 74
2738 271 80
2739 277 0
2740 284 105
2741 284 118
2742 284 126
2743 284 131
2744 284 14
2745 284 144
2746 284 157
2747 284 170
2748 284 175
2749 284 183
2750 284 196
2751 284 199
2752 284 209
2753 284 212
2754 284 225
2755 284 27
2756 284 39
2757 284 40
2758 284 53
2759 284 66
2760 284 79
2761 284 92
2762 284 94
EOF
